\ENCODING=ISO-8859-1
\Problem name: ilog.cplex

Maximize
 obj: 607 x(0)#0 + 401 x(1)#1 + 645 x(2)#2 + 907 x(3)#3 + 915 x(4)#4
      + 499 x(5)#5 + 914 x(6)#6 + 879 x(7)#7 + 757 x(8)#8 + 978 x(9)#9
      + 608 x(10)#10 + 548 x(11)#11 + 470 x(12)#12 + 1167 x(13)#13
      + 1017 x(14)#14 + 699 x(15)#15 + 942 x(16)#16 + 547 x(17)#17
      + 986 x(18)#18 + 875 x(19)#19 + 876 x(20)#20 + 658 x(21)#21
      + 461 x(22)#22 + 546 x(23)#23 + 866 x(24)#24 + 664 x(25)#25
      + 649 x(26)#26 + 1125 x(27)#27 + 362 x(28)#28 + 941 x(29)#29
      + 817 x(30)#30 + 1064 x(31)#31 + 908 x(32)#32 + 586 x(33)#33
      + 774 x(34)#34 + 796 x(35)#35 + 762 x(36)#36 + 605 x(37)#37
      + 643 x(38)#38 + 661 x(39)#39 + 752 x(40)#40 + 730 x(41)#41
      + 893 x(42)#42 + 742 x(43)#43 + 884 x(44)#44 + 611 x(45)#45
      + 922 x(46)#46 + 953 x(47)#47 + 360 x(48)#48 + 918 x(49)#49
      + 770 x(50)#50 + 946 x(51)#51 + 913 x(52)#52 + 523 x(53)#53
      + 440 x(54)#54 + 636 x(55)#55 + 859 x(56)#56 + 968 x(57)#57
      + 313 x(58)#58 + 1114 x(59)#59 + 792 x(60)#60 + 800 x(61)#61
      + 780 x(62)#62 + 817 x(63)#63 + 1108 x(64)#64 + 1038 x(65)#65
      + 655 x(66)#66 + 697 x(67)#67 + 700 x(68)#68 + 797 x(69)#69
      + 1030 x(70)#70 + 753 x(71)#71 + 591 x(72)#72 + 936 x(73)#73
      + 634 x(74)#74 + 712 x(75)#75 + 581 x(76)#76 + 827 x(77)#77
      + 434 x(78)#78 + 686 x(79)#79 + 759 x(80)#80 + 772 x(81)#81
      + 871 x(82)#82 + 643 x(83)#83 + 759 x(84)#84 + 623 x(85)#85
      + 605 x(86)#86 + 934 x(87)#87 + 697 x(88)#88 + 534 x(89)#89
      + 1029 x(90)#90 + 650 x(91)#91 + 961 x(92)#92 + 509 x(93)#93
      + 652 x(94)#94 + 571 x(95)#95 + 420 x(96)#96 + 673 x(97)#97
      + 734 x(98)#98 + 735 x(99)#99
Subject To
 c1: 461 x(0)#0 + 496 x(1)#1 + 567 x(2)#2 + 403 x(3)#3 + 773 x(4)#4
     + 652 x(5)#5 + 653 x(6)#6 + 794 x(7)#7 + 336 x(8)#8 + 899 x(9)#9
     + 104 x(10)#10 + 871 x(11)#11 + 445 x(12)#12 + 393 x(13)#13 + 390 x(14)#14
     + 149 x(15)#15 + 371 x(16)#16 + 35 x(17)#17 + 844 x(18)#18 + 840 x(19)#19
     + 136 x(20)#20 + 224 x(21)#21 + 665 x(22)#22 + 27 x(23)#23 + 683 x(24)#24
     + 711 x(25)#25 + 465 x(26)#26 + 486 x(27)#27 + 170 x(28)#28 + 616 x(29)#29
     + 86 x(30)#30 + 154 x(31)#31 + 378 x(32)#32 + 476 x(33)#33 + 614 x(34)#34
     + 604 x(35)#35 + 578 x(36)#36 + 116 x(37)#37 + 303 x(38)#38 + 930 x(39)#39
     + 79 x(40)#40 + 19 x(41)#41 + 651 x(42)#42 + 329 x(43)#43 + 726 x(44)#44
     + 426 x(45)#45 + 332 x(46)#46 + 450 x(47)#47 + 731 x(48)#48 + 463 x(49)#49
     + 5 x(50)#50 + 680 x(51)#51 + 851 x(52)#52 + 380 x(53)#53 + 238 x(54)#54
     + 411 x(55)#55 + 868 x(56)#56 + 953 x(57)#57 + 109 x(58)#58 + 770 x(59)#59
     + 968 x(60)#60 + 297 x(61)#61 + 413 x(62)#62 + 402 x(63)#63 + 923 x(64)#64
     + 453 x(65)#65 + 720 x(66)#66 + 9 x(67)#67 + 819 x(68)#68 + 67 x(69)#69
     + 459 x(70)#70 + 320 x(71)#71 + 984 x(72)#72 + 676 x(73)#73 + 198 x(74)#74
     + 660 x(75)#75 + 279 x(76)#76 + 80 x(77)#77 + 808 x(78)#78 + 540 x(79)#79
     + 763 x(80)#80 + 386 x(81)#81 + 941 x(82)#82 + 232 x(83)#83 + 126 x(84)#84
     + 51 x(85)#85 + 183 x(86)#86 + 901 x(87)#87 + 467 x(88)#88 + 207 x(89)#89
     + 861 x(90)#90 + 387 x(91)#91 + 779 x(92)#92 + 362 x(93)#93 + 22 x(94)#94
     + 618 x(95)#95 + 345 x(96)#96 + 433 x(97)#97 + 4 x(98)#98 + 288 x(99)#99
     <= 11700
 c2: 878 x(0)#0 + 88 x(1)#1 + 752 x(2)#2 + 381 x(3)#3 + 827 x(4)#4 + 407 x(5)#5
     + 993 x(6)#6 + 320 x(7)#7 + 763 x(8)#8 + 987 x(9)#9 + 252 x(10)#10
     + 601 x(11)#11 + 188 x(12)#12 + 981 x(13)#13 + 531 x(14)#14 + 166 x(15)#15
     + 465 x(16)#16 + 797 x(17)#17 + 773 x(18)#18 + 258 x(19)#19 + 953 x(20)#20
     + 796 x(21)#21 + 881 x(22)#22 + 176 x(23)#23 + 997 x(24)#24 + 804 x(25)#25
     + 66 x(26)#26 + 483 x(27)#27 + 139 x(28)#28 + 457 x(29)#29 + 409 x(30)#30
     + 955 x(31)#31 + 77 x(32)#32 + 948 x(33)#33 + 790 x(34)#34 + 519 x(35)#35
     + 474 x(36)#36 + 315 x(37)#37 + 876 x(38)#38 + 534 x(39)#39 + 768 x(40)#40
     + 962 x(41)#41 + 303 x(42)#42 + 43 x(43)#43 + 509 x(44)#44 + 383 x(45)#45
     + 318 x(46)#46 + 67 x(47)#47 + 539 x(48)#48 + 289 x(49)#49 + 953 x(50)#50
     + 464 x(51)#51 + 45 x(52)#52 + 70 x(53)#53 + 457 x(54)#54 + 820 x(55)#55
     + 411 x(56)#56 + 727 x(57)#57 + 441 x(58)#58 + 364 x(59)#59 + 818 x(60)#60
     + 828 x(61)#61 + 9 x(62)#62 + 593 x(63)#63 + 440 x(64)#64 + 759 x(65)#65
     + 157 x(66)#66 + 760 x(67)#67 + 338 x(68)#68 + 697 x(69)#69 + 511 x(70)#70
     + 365 x(71)#71 + 54 x(72)#72 + 934 x(73)#73 + 577 x(74)#74 + 425 x(75)#75
     + 319 x(76)#76 + 530 x(77)#77 + 904 x(78)#78 + 288 x(79)#79 + 884 x(80)#80
     + 312 x(81)#81 + 177 x(82)#82 + 425 x(83)#83 + 320 x(84)#84 + 342 x(85)#85
     + 165 x(86)#86 + 996 x(87)#87 + 983 x(88)#88 + 882 x(89)#89 + 252 x(90)#90
     + 549 x(91)#91 + 749 x(92)#92 + 115 x(93)#93 + 2 x(94)#94 + 91 x(95)#95
     + 86 x(96)#96 + 744 x(97)#97 + 412 x(98)#98 + 887 x(99)#99 <= 12917
 c3: 85 x(0)#0 + 417 x(1)#1 + 457 x(2)#2 + 716 x(3)#3 + 781 x(4)#4 + 479 x(5)#5
     + 665 x(6)#6 + 763 x(7)#7 + 690 x(8)#8 + 620 x(9)#9 + 783 x(10)#10
     + 252 x(11)#11 + 277 x(12)#12 + 833 x(13)#13 + 414 x(14)#14 + 500 x(15)#15
     + 65 x(16)#16 + 956 x(17)#17 + 244 x(18)#18 + 297 x(19)#19 + 304 x(20)#20
     + 134 x(21)#21 + 41 x(22)#22 + 782 x(23)#23 + 12 x(24)#24 + 78 x(25)#25
     + 878 x(26)#26 + 943 x(27)#27 + 608 x(28)#28 + 544 x(29)#29 + 861 x(30)#30
     + 836 x(31)#31 + 930 x(32)#32 + 299 x(33)#33 + 868 x(34)#34 + 29 x(35)#35
     + 279 x(36)#36 + 516 x(37)#37 + 369 x(38)#38 + 66 x(39)#39 + 12 x(40)#40
     + 813 x(41)#41 + 740 x(42)#42 + 455 x(43)#43 + 589 x(44)#44 + 166 x(45)#45
     + 768 x(46)#46 + 969 x(47)#47 + 192 x(48)#48 + 751 x(49)#49 + 760 x(50)#50
     + 548 x(51)#51 + 207 x(52)#52 + 763 x(53)#53 + 401 x(54)#54 + 32 x(55)#55
     + 544 x(56)#56 + 581 x(57)#57 + 19 x(58)#58 + 647 x(59)#59 + 229 x(60)#60
     + 678 x(61)#61 + 782 x(62)#62 + 767 x(63)#63 + 642 x(64)#64 + 966 x(65)#65
     + 951 x(66)#66 + 584 x(67)#67 + 41 x(68)#68 + 382 x(69)#69 + 999 x(70)#70
     + 956 x(71)#71 + 231 x(72)#72 + 303 x(73)#73 + 992 x(74)#74 + x(75)#75
     + 165 x(76)#76 + 269 x(77)#77 + 159 x(78)#78 + 105 x(79)#79 + 558 x(80)#80
     + 832 x(81)#81 + 367 x(82)#82 + 716 x(83)#83 + 851 x(84)#84 + 929 x(85)#85
     + 364 x(86)#86 + 418 x(87)#87 + 297 x(88)#88 + 447 x(89)#89 + 170 x(90)#90
     + 610 x(91)#91 + 341 x(92)#92 + 548 x(93)#93 + 897 x(94)#94 + 761 x(95)#95
     + 540 x(96)#96 + 235 x(97)#97 + 577 x(98)#98 + 963 x(99)#99 <= 12813
 c4: 733 x(0)#0 + 61 x(1)#1 + 77 x(2)#2 + 587 x(3)#3 + 539 x(4)#4 + 80 x(5)#5
     + 41 x(6)#6 + 763 x(7)#7 + 444 x(8)#8 + 215 x(9)#9 + 179 x(10)#10
     + 98 x(11)#11 + 411 x(12)#12 + 567 x(13)#13 + 851 x(14)#14 + 537 x(15)#15
     + 637 x(16)#16 + 367 x(17)#17 + 170 x(18)#18 + 283 x(19)#19 + 237 x(20)#20
     + 229 x(21)#21 + 131 x(22)#22 + 472 x(23)#23 + 273 x(24)#24 + 432 x(25)#25
     + 204 x(26)#26 + 888 x(27)#27 + 425 x(28)#28 + 25 x(29)#29 + 675 x(30)#30
     + 592 x(31)#31 + 650 x(32)#32 + 113 x(33)#33 + 329 x(34)#34 + 494 x(35)#35
     + 215 x(36)#36 + 329 x(37)#37 + 752 x(38)#38 + 220 x(39)#39 + 874 x(40)#40
     + 491 x(41)#41 + 164 x(42)#42 + 830 x(43)#43 + 942 x(44)#44 + 588 x(45)#45
     + 818 x(46)#46 + 587 x(47)#47 + 60 x(48)#48 + 766 x(49)#49 + 802 x(50)#50
     + 894 x(51)#51 + 887 x(52)#52 + 46 x(53)#53 + 598 x(54)#54 + 249 x(55)#55
     + 984 x(56)#56 + 491 x(57)#57 + 376 x(58)#58 + 606 x(59)#59 + 720 x(60)#60
     + 913 x(61)#61 + 302 x(62)#62 + 965 x(63)#63 + 793 x(64)#64 + 49 x(65)#65
     + 764 x(66)#66 + 669 x(67)#67 + 556 x(68)#68 + 265 x(69)#69 + 885 x(70)#70
     + 387 x(71)#71 + 464 x(72)#72 + 930 x(73)#73 + 425 x(74)#74 + 636 x(75)#75
     + 431 x(76)#76 + 254 x(77)#77 + 5 x(78)#78 + 282 x(79)#79 + 321 x(80)#80
     + 925 x(81)#81 + 990 x(82)#82 + 504 x(83)#83 + 84 x(84)#84 + 980 x(85)#85
     + 323 x(86)#86 + 262 x(87)#87 + 371 x(88)#88 + 764 x(89)#89 + 598 x(90)#90
     + 362 x(91)#91 + 562 x(92)#92 + 811 x(93)#93 + 104 x(94)#94 + 884 x(95)#95
     + 330 x(96)#96 + 958 x(97)#97 + 295 x(98)#98 + 96 x(99)#99 <= 12149
 c5: 872 x(0)#0 + 905 x(1)#1 + 488 x(2)#2 + 890 x(3)#3 + 694 x(4)#4
     + 548 x(5)#5 + 252 x(6)#6 + 540 x(7)#7 + 711 x(8)#8 + 726 x(9)#9
     + 973 x(10)#10 + 575 x(11)#11 + 555 x(12)#12 + 757 x(13)#13 + 669 x(14)#14
     + 754 x(15)#15 + 919 x(16)#16 + 141 x(17)#17 + 723 x(18)#18 + 901 x(19)#19
     + 497 x(20)#20 + 172 x(21)#21 + 28 x(22)#22 + 756 x(23)#23 + 406 x(24)#24
     + 359 x(25)#25 + 90 x(26)#26 + 989 x(27)#27 + 291 x(28)#28 + 575 x(29)#29
     + 880 x(30)#30 + 376 x(31)#31 + 798 x(32)#32 + 689 x(33)#33 + 273 x(34)#34
     + 889 x(35)#35 + 979 x(36)#36 + 704 x(37)#37 + 676 x(38)#38 + 254 x(39)#39
     + 629 x(40)#40 + 123 x(41)#41 + 408 x(42)#42 + 489 x(43)#43 + 226 x(44)#44
     + 54 x(45)#45 + 750 x(46)#46 + 277 x(47)#47 + 29 x(48)#48 + 905 x(49)#49
     + 267 x(50)#50 + 632 x(51)#51 + 290 x(52)#52 + 51 x(53)#53 + 35 x(54)#54
     + 149 x(55)#55 + 28 x(56)#56 + 692 x(57)#57 + 93 x(58)#58 + 686 x(59)#59
     + 414 x(60)#60 + 285 x(61)#61 + 920 x(62)#62 + 636 x(63)#63 + 748 x(64)#64
     + 625 x(65)#65 + 8 x(66)#66 + 382 x(67)#67 + 599 x(68)#68 + 407 x(69)#69
     + 400 x(70)#70 + 483 x(71)#71 + 818 x(72)#72 + 598 x(73)#73 + 591 x(74)#74
     + 656 x(75)#75 + 575 x(76)#76 + 560 x(77)#77 + 123 x(78)#78 + 624 x(79)#79
     + 840 x(80)#80 + 146 x(81)#81 + 22 x(82)#82 + 222 x(83)#83 + 687 x(84)#84
     + 81 x(85)#85 + 731 x(86)#86 + 283 x(87)#87 + 685 x(88)#88 + 211 x(89)#89
     + 839 x(90)#90 + 529 x(91)#91 + 603 x(92)#92 + 120 x(93)#93 + 23 x(94)#94
     + 387 x(95)#95 + 154 x(96)#96 + 984 x(97)#97 + 589 x(98)#98 + 211 x(99)#99
     <= 12472
Bounds
 0 <= x(0)#0 <= 1
 0 <= x(1)#1 <= 1
 0 <= x(2)#2 <= 1
 0 <= x(3)#3 <= 1
 0 <= x(4)#4 <= 1
 0 <= x(5)#5 <= 1
 0 <= x(6)#6 <= 1
 0 <= x(7)#7 <= 1
 0 <= x(8)#8 <= 1
 0 <= x(9)#9 <= 1
 0 <= x(10)#10 <= 1
 0 <= x(11)#11 <= 1
 0 <= x(12)#12 <= 1
 0 <= x(13)#13 <= 1
 0 <= x(14)#14 <= 1
 0 <= x(15)#15 <= 1
 0 <= x(16)#16 <= 1
 0 <= x(17)#17 <= 1
 0 <= x(18)#18 <= 1
 0 <= x(19)#19 <= 1
 0 <= x(20)#20 <= 1
 0 <= x(21)#21 <= 1
 0 <= x(22)#22 <= 1
 0 <= x(23)#23 <= 1
 0 <= x(24)#24 <= 1
 0 <= x(25)#25 <= 1
 0 <= x(26)#26 <= 1
 0 <= x(27)#27 <= 1
 0 <= x(28)#28 <= 1
 0 <= x(29)#29 <= 1
 0 <= x(30)#30 <= 1
 0 <= x(31)#31 <= 1
 0 <= x(32)#32 <= 1
 0 <= x(33)#33 <= 1
 0 <= x(34)#34 <= 1
 0 <= x(35)#35 <= 1
 0 <= x(36)#36 <= 1
 0 <= x(37)#37 <= 1
 0 <= x(38)#38 <= 1
 0 <= x(39)#39 <= 1
 0 <= x(40)#40 <= 1
 0 <= x(41)#41 <= 1
 0 <= x(42)#42 <= 1
 0 <= x(43)#43 <= 1
 0 <= x(44)#44 <= 1
 0 <= x(45)#45 <= 1
 0 <= x(46)#46 <= 1
 0 <= x(47)#47 <= 1
 0 <= x(48)#48 <= 1
 0 <= x(49)#49 <= 1
 0 <= x(50)#50 <= 1
 0 <= x(51)#51 <= 1
 0 <= x(52)#52 <= 1
 0 <= x(53)#53 <= 1
 0 <= x(54)#54 <= 1
 0 <= x(55)#55 <= 1
 0 <= x(56)#56 <= 1
 0 <= x(57)#57 <= 1
 0 <= x(58)#58 <= 1
 0 <= x(59)#59 <= 1
 0 <= x(60)#60 <= 1
 0 <= x(61)#61 <= 1
 0 <= x(62)#62 <= 1
 0 <= x(63)#63 <= 1
 0 <= x(64)#64 <= 1
 0 <= x(65)#65 <= 1
 0 <= x(66)#66 <= 1
 0 <= x(67)#67 <= 1
 0 <= x(68)#68 <= 1
 0 <= x(69)#69 <= 1
 0 <= x(70)#70 <= 1
 0 <= x(71)#71 <= 1
 0 <= x(72)#72 <= 1
 0 <= x(73)#73 <= 1
 0 <= x(74)#74 <= 1
 0 <= x(75)#75 <= 1
 0 <= x(76)#76 <= 1
 0 <= x(77)#77 <= 1
 0 <= x(78)#78 <= 1
 0 <= x(79)#79 <= 1
 0 <= x(80)#80 <= 1
 0 <= x(81)#81 <= 1
 0 <= x(82)#82 <= 1
 0 <= x(83)#83 <= 1
 0 <= x(84)#84 <= 1
 0 <= x(85)#85 <= 1
 0 <= x(86)#86 <= 1
 0 <= x(87)#87 <= 1
 0 <= x(88)#88 <= 1
 0 <= x(89)#89 <= 1
 0 <= x(90)#90 <= 1
 0 <= x(91)#91 <= 1
 0 <= x(92)#92 <= 1
 0 <= x(93)#93 <= 1
 0 <= x(94)#94 <= 1
 0 <= x(95)#95 <= 1
 0 <= x(96)#96 <= 1
 0 <= x(97)#97 <= 1
 0 <= x(98)#98 <= 1
 0 <= x(99)#99 <= 1
Generals
 x(0)#0  x(1)#1  x(2)#2  x(3)#3  x(4)#4  x(5)#5  x(6)#6  x(7)#7  x(8)#8 
 x(9)#9  x(10)#10  x(11)#11  x(12)#12  x(13)#13  x(14)#14  x(15)#15  x(16)#16 
 x(17)#17  x(18)#18  x(19)#19  x(20)#20  x(21)#21  x(22)#22  x(23)#23 
 x(24)#24  x(25)#25  x(26)#26  x(27)#27  x(28)#28  x(29)#29  x(30)#30 
 x(31)#31  x(32)#32  x(33)#33  x(34)#34  x(35)#35  x(36)#36  x(37)#37 
 x(38)#38  x(39)#39  x(40)#40  x(41)#41  x(42)#42  x(43)#43  x(44)#44 
 x(45)#45  x(46)#46  x(47)#47  x(48)#48  x(49)#49  x(50)#50  x(51)#51 
 x(52)#52  x(53)#53  x(54)#54  x(55)#55  x(56)#56  x(57)#57  x(58)#58 
 x(59)#59  x(60)#60  x(61)#61  x(62)#62  x(63)#63  x(64)#64  x(65)#65 
 x(66)#66  x(67)#67  x(68)#68  x(69)#69  x(70)#70  x(71)#71  x(72)#72 
 x(73)#73  x(74)#74  x(75)#75  x(76)#76  x(77)#77  x(78)#78  x(79)#79 
 x(80)#80  x(81)#81  x(82)#82  x(83)#83  x(84)#84  x(85)#85  x(86)#86 
 x(87)#87  x(88)#88  x(89)#89  x(90)#90  x(91)#91  x(92)#92  x(93)#93 
 x(94)#94  x(95)#95  x(96)#96  x(97)#97  x(98)#98  x(99)#99 
End
